#----------------------------------------------------------------------------------------------#
#----------------------------------------"SET UP DATA"-----------------------------------------#
#----------------------------------------------------------------------------------------------#
data;

#state and control matrices
param A: 1 2 3 4 5 6 :=
1 0 0   0.025000000000000                   0                   0   9.440226176914120
2 0 0                   0   0.998893004300226   0.444560803760228                   0
3 0 0                   0  -0.047040046344243   9.440226176914120                   0
4 0 0                   0  -0.097659676106887  -9.795794080620812   0.011101716921554
5 0 0                   0   0.219474145870889  -0.048811818583111   0.000055319149002
6 0 0                   0                   0  -0.025055441828793                   0
;
param B: 1 2 :=
1                   0                   0
2                   0                   0
3                   0                   0
4  -0.627625600000000                   0
5   1.411266995764266                   0
6                   0   1.038815152965504
;
param Yeq :=
1                   0
2                   0
3                   0
4   9.450688047943098
5  -0.047057411743529
6                   0
;
param Ueq :=
1   0.735272058492637
2                   0
;

let tf := length/(2*Yeq[4]);

let beta := 0.025;

#----------------------------------------------------------------------------------------------#
#----------------------------------------"SET UP DATA"-----------------------------------------#
#----------------------------------------------------------------------------------------------#

